<?xml version = "1.0" standalone="yes"?>
<!-- This file has been generated by DOcplex version 2.23.222  -->
<CPLEXSolution version="1.0">
 <header
   problemName="CVRP"
   objectiveValue="11113.9"
  />
 <variables>
  <variable name="x_0_2" index="1" value="1.00000"/>
  <variable name="x_0_5" index="4" value="1.00000"/>
  <variable name="x_0_7" index="6" value="1.00000"/>
  <variable name="x_0_8" index="7" value="1.00000"/>
  <variable name="x_0_9" index="8" value="1.00000"/>
  <variable name="x_0_12" index="11" value="1.00000"/>
  <variable name="x_0_14" index="13" value="1.00000"/>
  <variable name="x_1_0" index="14" value="1.00000"/>
  <variable name="x_2_6" index="33" value="1.00000"/>
  <variable name="x_3_10" index="51" value="1.00000"/>
  <variable name="x_4_3" index="59" value="1.00000"/>
  <variable name="x_5_0" index="70" value="1.00000"/>
  <variable name="x_6_0" index="84" value="1.00000"/>
  <variable name="x_7_13" index="110" value="1.00000"/>
  <variable name="x_8_0" index="112" value="1.00000"/>
  <variable name="x_9_4" index="130" value="1.00000"/>
  <variable name="x_10_0" index="140" value="1.00000"/>
  <variable name="x_11_0" index="154" value="1.00000"/>
  <variable name="x_12_1" index="169" value="1.00000"/>
  <variable name="x_13_0" index="182" value="1.00000"/>
  <variable name="x_14_11" index="207" value="1.00000"/>
  <variable name="u_1" index="210" value="36.00000"/>
  <variable name="u_2" index="211" value="9.00000"/>
  <variable name="u_3" index="212" value="30.00000"/>
  <variable name="u_4" index="213" value="17.00000"/>
  <variable name="u_5" index="214" value="33.00000"/>
  <variable name="u_6" index="215" value="38.00000"/>
  <variable name="u_7" index="216" value="25.00000"/>
  <variable name="u_8" index="217" value="34.00000"/>
  <variable name="u_9" index="218" value="10.00000"/>
  <variable name="u_10" index="219" value="33.00000"/>
  <variable name="u_11" index="220" value="38.00000"/>
  <variable name="u_12" index="221" value="26.00000"/>
  <variable name="u_13" index="222" value="38.00000"/>
  <variable name="u_14" index="223" value="8.00000"/>
 </variables>
</CPLEXSolution>
